(set-logic HORN)
(declare-datatypes ((Nat_1 0)) (((Z_0 ) (S_0 (unS_0 Nat_1)))))
(declare-fun diseqNat_0 (Nat_1 Nat_1) Bool)
(declare-fun unS_1 (Nat_1 Nat_1) Bool)
(declare-fun isZ_0 (Nat_1) Bool)
(declare-fun isS_0 (Nat_1) Bool)
(assert (forall ((x_84 Nat_1) (x_83 Nat_1))
	(=> (= x_84 (S_0 x_83))
	    (unS_1 x_83 x_84))))
(assert (isZ_0 Z_0))
(assert (forall ((x_85 Nat_1))
	(isS_0 (S_0 x_85))))
(assert (forall ((x_86 Nat_1))
	(diseqNat_0 Z_0 (S_0 x_86))))
(assert (forall ((x_87 Nat_1))
	(diseqNat_0 (S_0 x_87) Z_0)))
(assert (forall ((x_88 Nat_1) (x_89 Nat_1))
	(=> (diseqNat_0 x_88 x_89)
	    (diseqNat_0 (S_0 x_88) (S_0 x_89)))))
(declare-fun add_0 (Nat_1 Nat_1 Nat_1) Bool)
(declare-fun minus_0 (Nat_1 Nat_1 Nat_1) Bool)
(declare-fun le_0 (Nat_1 Nat_1) Bool)
(declare-fun ge_0 (Nat_1 Nat_1) Bool)
(declare-fun lt_0 (Nat_1 Nat_1) Bool)
(declare-fun gt_0 (Nat_1 Nat_1) Bool)
(declare-fun mult_0 (Nat_1 Nat_1 Nat_1) Bool)
(declare-fun div_0 (Nat_1 Nat_1 Nat_1) Bool)
(declare-fun mod_0 (Nat_1 Nat_1 Nat_1) Bool)
(assert (forall ((y_13 Nat_1))
	(add_0 y_13 Z_0 y_13)))
(assert (forall ((x_81 Nat_1) (y_13 Nat_1) (r_0 Nat_1))
	(=> (add_0 r_0 x_81 y_13)
	    (add_0 (S_0 r_0) (S_0 x_81) y_13))))
(assert (forall ((y_13 Nat_1))
	(minus_0 Z_0 Z_0 y_13)))
(assert (forall ((x_81 Nat_1) (y_13 Nat_1) (r_0 Nat_1))
	(=> (minus_0 r_0 x_81 y_13)
	    (minus_0 (S_0 r_0) (S_0 x_81) y_13))))
(assert (forall ((y_13 Nat_1))
	(le_0 Z_0 y_13)))
(assert (forall ((x_81 Nat_1) (y_13 Nat_1))
	(=> (le_0 x_81 y_13)
	    (le_0 (S_0 x_81) (S_0 y_13)))))
(assert (forall ((y_13 Nat_1))
	(ge_0 y_13 Z_0)))
(assert (forall ((x_81 Nat_1) (y_13 Nat_1))
	(=> (ge_0 x_81 y_13)
	    (ge_0 (S_0 x_81) (S_0 y_13)))))
(assert (forall ((y_13 Nat_1))
	(lt_0 Z_0 (S_0 y_13))))
(assert (forall ((x_81 Nat_1) (y_13 Nat_1))
	(=> (lt_0 x_81 y_13)
	    (lt_0 (S_0 x_81) (S_0 y_13)))))
(assert (forall ((y_13 Nat_1))
	(gt_0 (S_0 y_13) Z_0)))
(assert (forall ((x_81 Nat_1) (y_13 Nat_1))
	(=> (gt_0 x_81 y_13)
	    (gt_0 (S_0 x_81) (S_0 y_13)))))
(assert (forall ((y_13 Nat_1))
	(mult_0 Z_0 Z_0 y_13)))
(assert (forall ((x_81 Nat_1) (y_13 Nat_1) (r_0 Nat_1) (z_9 Nat_1))
	(=>	(and (mult_0 r_0 x_81 y_13)
			(add_0 z_9 r_0 y_13))
		(mult_0 z_9 (S_0 x_81) y_13))))
(assert (forall ((x_81 Nat_1) (y_13 Nat_1))
	(=> (lt_0 x_81 y_13)
	    (div_0 Z_0 x_81 y_13))))
(assert (forall ((x_81 Nat_1) (y_13 Nat_1) (r_0 Nat_1) (z_9 Nat_1))
	(=>	(and (ge_0 x_81 y_13)
			(minus_0 z_9 x_81 y_13)
			(div_0 r_0 z_9 y_13))
		(div_0 (S_0 r_0) x_81 y_13))))
(assert (forall ((x_81 Nat_1) (y_13 Nat_1))
	(=> (lt_0 x_81 y_13)
	    (mod_0 x_81 x_81 y_13))))
(assert (forall ((x_81 Nat_1) (y_13 Nat_1) (r_0 Nat_1) (z_9 Nat_1))
	(=>	(and (ge_0 x_81 y_13)
			(minus_0 z_9 x_81 y_13)
			(mod_0 r_0 z_9 y_13))
		(mod_0 r_0 x_81 y_13))))
(declare-datatypes ((Sign_0 0)) (((Pos_0 ) (Neg_0 ))))
(declare-fun diseqSign_0 (Sign_0 Sign_0) Bool)
(declare-fun isPos_0 (Sign_0) Bool)
(declare-fun isNeg_0 (Sign_0) Bool)
(assert (isPos_0 Pos_0))
(assert (isNeg_0 Neg_0))
(assert (diseqSign_0 Pos_0 Neg_0))
(assert (diseqSign_0 Neg_0 Pos_0))
(declare-datatypes ((Nat_0 0)) (((zero_0 ) (succ_0 (p_0 Nat_0)))))
(declare-fun diseqNat_1 (Nat_0 Nat_0) Bool)
(declare-fun p_1 (Nat_0 Nat_0) Bool)
(declare-fun iszero_0 (Nat_0) Bool)
(declare-fun issucc_0 (Nat_0) Bool)
(assert (forall ((x_94 Nat_0) (x_93 Nat_0))
	(=> (= x_94 (succ_0 x_93))
	    (p_1 x_93 x_94))))
(assert (iszero_0 zero_0))
(assert (forall ((x_95 Nat_0))
	(issucc_0 (succ_0 x_95))))
(assert (forall ((x_96 Nat_0))
	(diseqNat_1 zero_0 (succ_0 x_96))))
(assert (forall ((x_97 Nat_0))
	(diseqNat_1 (succ_0 x_97) zero_0)))
(assert (forall ((x_98 Nat_0) (x_99 Nat_0))
	(=> (diseqNat_1 x_98 x_99)
	    (diseqNat_1 (succ_0 x_98) (succ_0 x_99)))))
(declare-datatypes ((Integer_0 0)) (((P_0 (projP_0 Nat_0)) (N_0 (projN_0 Nat_0)))))
(declare-fun diseqInteger_0 (Integer_0 Integer_0) Bool)
(declare-fun projP_1 (Nat_0 Integer_0) Bool)
(declare-fun projN_1 (Nat_0 Integer_0) Bool)
(declare-fun isP_0 (Integer_0) Bool)
(declare-fun isN_0 (Integer_0) Bool)
(assert (forall ((x_101 Integer_0) (x_100 Nat_0))
	(=> (= x_101 (P_0 x_100))
	    (projP_1 x_100 x_101))))
(assert (forall ((x_103 Integer_0) (x_102 Nat_0))
	(=> (= x_103 (N_0 x_102))
	    (projN_1 x_102 x_103))))
(assert (forall ((x_104 Nat_0))
	(isP_0 (P_0 x_104))))
(assert (forall ((x_105 Nat_0))
	(isN_0 (N_0 x_105))))
(assert (forall ((x_106 Nat_0) (x_107 Nat_0))
	(diseqInteger_0 (P_0 x_106) (N_0 x_107))))
(assert (forall ((x_108 Nat_0) (x_109 Nat_0))
	(diseqInteger_0 (N_0 x_108) (P_0 x_109))))
(assert (forall ((x_110 Nat_0) (x_111 Nat_0))
	(=> (diseqNat_1 x_110 x_111)
	    (diseqInteger_0 (P_0 x_110) (P_0 x_111)))))
(assert (forall ((x_112 Nat_0) (x_113 Nat_0))
	(=> (diseqNat_1 x_112 x_113)
	    (diseqInteger_0 (N_0 x_112) (N_0 x_113)))))
(declare-fun toInteger_0 (Integer_0 Sign_0 Nat_0) Bool)
(assert (forall ((x_0 Sign_0) (y_0 Nat_0) (z_0 Nat_0) (x_21 Integer_0))
	(=>	(and (= x_21 (N_0 z_0))
			(= x_0 Neg_0)
			(= y_0 (succ_0 z_0)))
		(toInteger_0 x_21 x_0 y_0))))
(assert (forall ((x_0 Sign_0) (y_0 Nat_0) (x_22 Integer_0))
	(=>	(and (= x_22 (P_0 zero_0))
			(= x_0 Neg_0)
			(= y_0 zero_0))
		(toInteger_0 x_22 x_0 y_0))))
(assert (forall ((x_0 Sign_0) (y_0 Nat_0) (x_23 Integer_0))
	(=>	(and (= x_23 (P_0 y_0))
			(= x_0 Pos_0))
		(toInteger_0 x_23 x_0 y_0))))
(declare-fun sign_0 (Sign_0 Integer_0) Bool)
(assert (forall ((x_1 Integer_0) (z_1 Nat_0) (x_24 Sign_0))
	(=>	(and (= x_24 Neg_0)
			(= x_1 (N_0 z_1)))
		(sign_0 x_24 x_1))))
(assert (forall ((x_1 Integer_0) (y_1 Nat_0) (x_25 Sign_0))
	(=>	(and (= x_25 Pos_0)
			(= x_1 (P_0 y_1)))
		(sign_0 x_25 x_1))))
(declare-fun plus_0 (Nat_0 Nat_0 Nat_0) Bool)
(assert (forall ((x_2 Nat_0) (y_2 Nat_0) (z_2 Nat_0) (x_26 Nat_0) (x_27 Nat_0))
	(=>	(and (= x_26 (succ_0 x_27))
			(plus_0 x_27 z_2 y_2)
			(= x_2 (succ_0 z_2)))
		(plus_0 x_26 x_2 y_2))))
(assert (forall ((x_2 Nat_0) (y_2 Nat_0) (x_28 Nat_0))
	(=>	(and (= x_28 y_2)
			(= x_2 zero_0))
		(plus_0 x_28 x_2 y_2))))
(declare-fun times_0 (Nat_0 Nat_0 Nat_0) Bool)
(assert (forall ((x_3 Nat_0) (y_3 Nat_0) (z_3 Nat_0) (x_29 Nat_0) (x_30 Nat_0) (x_31 Nat_0))
	(=>	(and (= x_29 x_31)
			(times_0 x_30 z_3 y_3)
			(plus_0 x_31 y_3 x_30)
			(= x_3 (succ_0 z_3)))
		(times_0 x_29 x_3 y_3))))
(assert (forall ((x_3 Nat_0) (y_3 Nat_0) (x_32 Nat_0))
	(=>	(and (= x_32 zero_0)
			(= x_3 zero_0))
		(times_0 x_32 x_3 y_3))))
(declare-fun opposite_0 (Sign_0 Sign_0) Bool)
(assert (forall ((x_4 Sign_0) (x_33 Sign_0))
	(=>	(and (= x_33 Pos_0)
			(= x_4 Neg_0))
		(opposite_0 x_33 x_4))))
(assert (forall ((x_4 Sign_0) (x_34 Sign_0))
	(=>	(and (= x_34 Neg_0)
			(= x_4 Pos_0))
		(opposite_0 x_34 x_4))))
(declare-fun timesSign_0 (Sign_0 Sign_0 Sign_0) Bool)
(assert (forall ((x_5 Sign_0) (y_4 Sign_0) (x_35 Sign_0) (x_36 Sign_0))
	(=>	(and (= x_35 x_36)
			(opposite_0 x_36 y_4)
			(= x_5 Neg_0))
		(timesSign_0 x_35 x_5 y_4))))
(assert (forall ((x_5 Sign_0) (y_4 Sign_0) (x_37 Sign_0))
	(=>	(and (= x_37 y_4)
			(= x_5 Pos_0))
		(timesSign_0 x_37 x_5 y_4))))
(declare-fun absVal_0 (Nat_0 Integer_0) Bool)
(assert (forall ((x_6 Integer_0) (m_0 Nat_0) (x_38 Nat_0) (x_39 Nat_0))
	(=>	(and (= x_38 x_39)
			(plus_0 x_39 (succ_0 zero_0) m_0)
			(= x_6 (N_0 m_0)))
		(absVal_0 x_38 x_6))))
(assert (forall ((x_6 Integer_0) (n_0 Nat_0) (x_40 Nat_0))
	(=>	(and (= x_40 n_0)
			(= x_6 (P_0 n_0)))
		(absVal_0 x_40 x_6))))
(declare-fun times_1 (Integer_0 Integer_0 Integer_0) Bool)
(assert (forall ((x_7 Integer_0) (y_5 Integer_0) (x_41 Integer_0) (x_42 Sign_0) (x_43 Sign_0) (x_44 Sign_0) (x_45 Nat_0) (x_46 Nat_0) (x_47 Nat_0) (x_48 Integer_0))
	(=>	(and (= x_41 x_48)
			(sign_0 x_42 x_7)
			(sign_0 x_43 y_5)
			(timesSign_0 x_44 x_42 x_43)
			(absVal_0 x_45 x_7)
			(absVal_0 x_46 y_5)
			(times_0 x_47 x_45 x_46)
			(toInteger_0 x_48 x_44 x_47))
		(times_1 x_41 x_7 y_5))))
(assert (forall ((x_8 Integer_0) (y_6 Integer_0) (z_4 Integer_0) (x_49 Integer_0) (x_50 Integer_0) (x_51 Integer_0) (x_52 Integer_0))
	(=>	(and (diseqInteger_0 x_50 x_52)
			(times_1 x_49 y_6 z_4)
			(times_1 x_50 x_8 x_49)
			(times_1 x_51 x_8 y_6)
			(times_1 x_52 x_51 z_4))
		false)))
(assert (forall ((x_9 Nat_0) (y_7 Nat_0) (z_5 Nat_0) (x_53 Nat_0) (x_54 Nat_0) (x_55 Nat_0) (x_56 Nat_0))
	(=>	(and (diseqNat_1 x_54 x_56)
			(times_0 x_53 y_7 z_5)
			(times_0 x_54 x_9 x_53)
			(times_0 x_55 x_9 y_7)
			(times_0 x_56 x_55 z_5))
		false)))
(assert (forall ((x_10 Nat_0) (y_8 Nat_0) (z_6 Nat_0) (x_57 Nat_0) (x_58 Nat_0) (x_59 Nat_0) (x_60 Nat_0))
	(=>	(and (diseqNat_1 x_58 x_60)
			(plus_0 x_57 y_8 z_6)
			(plus_0 x_58 x_10 x_57)
			(plus_0 x_59 x_10 y_8)
			(plus_0 x_60 x_59 z_6))
		false)))
(assert (forall ((x_11 Nat_0) (y_9 Nat_0) (x_61 Nat_0) (x_62 Nat_0))
	(=>	(and (diseqNat_1 x_61 x_62)
			(times_0 x_61 x_11 y_9)
			(times_0 x_62 y_9 x_11))
		false)))
(assert (forall ((x_12 Nat_0) (y_10 Nat_0) (x_63 Nat_0) (x_64 Nat_0))
	(=>	(and (diseqNat_1 x_63 x_64)
			(plus_0 x_63 x_12 y_10)
			(plus_0 x_64 y_10 x_12))
		false)))
(assert (forall ((x_13 Nat_0) (y_11 Nat_0) (z_7 Nat_0) (x_65 Nat_0) (x_66 Nat_0) (x_67 Nat_0) (x_68 Nat_0) (x_69 Nat_0))
	(=>	(and (diseqNat_1 x_66 x_69)
			(plus_0 x_65 y_11 z_7)
			(times_0 x_66 x_13 x_65)
			(times_0 x_67 x_13 y_11)
			(times_0 x_68 x_13 z_7)
			(plus_0 x_69 x_67 x_68))
		false)))
(assert (forall ((x_14 Nat_0) (y_12 Nat_0) (z_8 Nat_0) (x_70 Nat_0) (x_71 Nat_0) (x_72 Nat_0) (x_73 Nat_0) (x_74 Nat_0))
	(=>	(and (diseqNat_1 x_71 x_74)
			(plus_0 x_70 x_14 y_12)
			(times_0 x_71 x_70 z_8)
			(times_0 x_72 x_14 z_8)
			(times_0 x_73 y_12 z_8)
			(plus_0 x_74 x_72 x_73))
		false)))
(assert (forall ((x_15 Nat_0) (x_75 Nat_0))
	(=>	(and (diseqNat_1 x_75 x_15)
			(times_0 x_75 x_15 (succ_0 zero_0)))
		false)))
(assert (forall ((x_16 Nat_0) (x_76 Nat_0))
	(=>	(and (diseqNat_1 x_76 x_16)
			(times_0 x_76 (succ_0 zero_0) x_16))
		false)))
(assert (forall ((x_17 Nat_0) (x_77 Nat_0))
	(=>	(and (diseqNat_1 x_77 x_17)
			(plus_0 x_77 x_17 zero_0))
		false)))
(assert (forall ((x_18 Nat_0) (x_78 Nat_0))
	(=>	(and (diseqNat_1 x_78 x_18)
			(plus_0 x_78 zero_0 x_18))
		false)))
(assert (forall ((x_19 Nat_0) (x_79 Nat_0))
	(=>	(and (diseqNat_1 x_79 zero_0)
			(times_0 x_79 x_19 zero_0))
		false)))
(assert (forall ((x_20 Nat_0) (x_80 Nat_0))
	(=>	(and (diseqNat_1 x_80 zero_0)
			(times_0 x_80 zero_0 x_20))
		false)))
(check-sat)
